# Years
1970 2100
# Feeding area
4
# Need
2000
# Catches
1970 6.8
1971 4
1972 4.1
1973 4.3
1974 4.5
1975 4.7
1976 4.9
1977 5.2
1978 5.4
1979 5.6
1980 5.9
1981 6.1
1982 6.5
1983 6.7
1984 7.1
1985 6.7
1986 7.8
1987 10
1988 8.5
1989 6.1
1990 7.4
1991 8.2
1992 9.8
1993 7.1
1994 9.3
1995 9.3
1996 12.7
1997 12.7
1998 14.7
1999 17.4
2000 14.1
2001 16.4
2002 13.8
2003 18.9
2004 22
2005 23.3
2006 22.7
2007 18.4
2008 19.7
2009 24.1
2010 44.5
2011 28.4
2012 11.6
2013 31.6
2014 43.7
2015 51
2016 34.8
2017 16.3
2018 26.6
2019 27.3
2020 24
2021 33.7
2022 22.3
2023 40.1
2024 309.35
2025 382.3683
2026 342.3393
2027 464.2848
2028 306.6719
2029 603.8065
2030 433.1536
2031 521.128
2032 573.8915
2033 593.57
2034 679.5945
2035 1050.14
2036 579.676
2037 691.162
2038 774.933
2039 758.822
2040 815.6995
2041 766.793
2042 1045.718
2043 1037.168
2044 1130.58
2045 1154.955
2046 1229.804
2047 1771.119
2048 1339.977
2049 1088.946
2050 1399.052
2051 1190.351
2052 1779.411
2053 1425.293
2054 1005.2
2055 1556.499
2056 1339.967
2057 1316.785
2058 1515.882
2059 1539.149
2060 1461.059
2061 1762.815
2062 1874.718
2063 1006.974
2064 1259.904
2065 1360.91
2066 929.002
2067 1264.743
2068 1726.506
2069 1032.424
2070 1052.859
2071 1318.524
2072 1557.094
2073 1920.767
2074 1763.298
2075 1231.355
2076 1468.418
2077 1478.641
2078 1551.783
2079 1845.021
2080 1073.196
2081 1427.876
2082 1270.212
2083 1915.424
2084 1068.14
2085 1179.965
2086 1872.358
2087 1457.617
2088 1232.346
2089 1882.344
2090 1353.171
2091 1611.153
2092 1613.225
2093 1587.261
2094 1144.46
2095 1540.718
2096 1547.302
2097 1753.44
2098 1642.316
2099 1454.059
2100 2000
# Estimates of abundance
#=======================
# Number of estimates of abundance
78
# Abundance
2004 2006 3 4 12 0 1 6187 0.07
2024 2024 3 4 12 0 1 7647.365 0.1805506
2025 2025 3 4 12 0 1 6846.786 0.245742
2026 2026 3 4 12 0 1 9285.696 0.2386042
2027 2027 3 4 12 0 1 6133.438 0.2036447
2028 2028 3 4 12 0 1 12076.13 0.2280684
2029 2029 3 4 12 0 1 8663.071 0.2171004
2030 2030 3 4 12 0 1 10422.56 0.1852429
2031 2031 3 4 12 0 1 11477.83 0.1729975
2032 2032 3 4 12 0 1 11871.4 0.148945
2033 2033 3 4 12 0 1 13591.89 0.246693
2034 2034 3 4 12 0 1 21002.79 0.223406
2035 2035 3 4 12 0 1 11593.52 0.2472716
2036 2036 3 4 12 0 1 13823.24 0.2420733
2037 2037 3 4 12 0 1 15498.66 0.2719395
2038 2038 3 4 12 0 1 15176.44 0.1775627
2039 2039 3 4 12 0 1 16313.99 0.225186
2040 2040 3 4 12 0 1 15335.86 0.1886445
2041 2041 3 4 12 0 1 20914.35 0.1132955
2042 2042 3 4 12 0 1 20743.36 0.1837404
2043 2043 3 4 12 0 1 22611.59 0.1747751
2044 2044 3 4 12 0 1 23099.09 0.1638951
2045 2045 3 4 12 0 1 24596.08 0.3251988
2046 2046 3 4 12 0 1 35422.38 0.2706557
2047 2047 3 4 12 0 1 26799.54 0.2024817
2048 2048 3 4 12 0 1 21778.92 0.2191509
2049 2049 3 4 12 0 1 27981.04 0.1766426
2050 2050 3 4 12 0 1 23807.02 0.203445
2051 2051 3 4 12 0 1 35588.21 0.2370076
2052 2052 3 4 12 0 1 28505.85 0.1549017
2053 2053 3 4 12 0 1 20103.99 0.229619
2054 2054 3 4 12 0 1 31129.97 0.2634536
2055 2055 3 4 12 0 1 26799.34 0.2116439
2056 2056 3 4 12 0 1 26335.69 0.2164881
2057 2057 3 4 12 0 1 30317.64 0.1741639
2058 2058 3 4 12 0 1 30782.98 0.1831972
2059 2059 3 4 12 0 1 29221.18 0.2458527
2060 2060 3 4 12 0 1 35256.3 0.1733717
2061 2061 3 4 12 0 1 37494.35 0.111807
2062 2062 3 4 12 0 1 20139.47 0.1959998
2063 2063 3 4 12 0 1 25198.07 0.1947523
2064 2064 3 4 12 0 1 27218.2 0.1810422
2065 2065 3 4 12 0 1 18580.04 0.223266
2066 2066 3 4 12 0 1 25294.86 0.2097079
2067 2067 3 4 12 0 1 34530.11 0.2025213
2068 2068 3 4 12 0 1 20648.48 0.1663508
2069 2069 3 4 12 0 1 21057.18 0.2439473
2070 2070 3 4 12 0 1 26370.48 0.3034227
2071 2071 3 4 12 0 1 31141.87 0.1653743
2072 2072 3 4 12 0 1 38415.33 0.1448035
2073 2073 3 4 12 0 1 35265.96 0.1998677
2074 2074 3 4 12 0 1 24627.09 0.1532023
2075 2075 3 4 12 0 1 29368.36 0.2083797
2076 2076 3 4 12 0 1 29572.81 0.1469475
2077 2077 3 4 12 0 1 31035.66 0.2190106
2078 2078 3 4 12 0 1 36900.42 0.1715045
2079 2079 3 4 12 0 1 21463.91 0.2906197
2080 2080 3 4 12 0 1 28557.51 0.2472716
2081 2081 3 4 12 0 1 25404.23 0.2445167
2082 2082 3 4 12 0 1 38308.48 0.1669214
2083 2083 3 4 12 0 1 21362.8 0.277985
2084 2084 3 4 12 0 1 23599.3 0.1799701
2085 2085 3 4 12 0 1 37447.16 0.2563512
2086 2086 3 4 12 0 1 29152.34 0.1858441
2087 2087 3 4 12 0 1 24646.91 0.2314502
2088 2088 3 4 12 0 1 37646.88 0.1866182
2089 2089 3 4 12 0 1 27063.42 0.243197
2090 2090 3 4 12 0 1 32223.06 0.120091
2091 2091 3 4 12 0 1 32264.5 0.169301
2092 2092 3 4 12 0 1 31745.21 0.2525723
2093 2093 3 4 12 0 1 22889.19 0.3252498
2094 2094 3 4 12 0 1 30814.36 0.1713021
2095 2095 3 4 12 0 1 30946.03 0.1445235
2096 2096 3 4 12 0 1 35068.8 0.1619949
2097 2097 3 4 12 0 1 32846.31 0.09674818
2098 2098 3 4 12 0 1 29081.18 0.1838664
2099 2099 3 4 12 0 1 40606.72 0.1928333
2100 2100 3 4 12 0 1 29805.63 0.2338135
