# Years
1970 2047
# Feeding area
4
# Need
2000
# Catches
1970 6.8
1971 4
1972 4.1
1973 4.3
1974 4.5
1975 4.7
1976 4.9
1977 5.2
1978 5.4
1979 5.6
1980 5.9
1981 6.1
1982 6.5
1983 6.7
1984 7.1
1985 6.7
1986 7.8
1987 10
1988 8.5
1989 6.1
1990 7.4
1991 8.2
1992 9.8
1993 7.1
1994 9.3
1995 9.3
1996 12.7
1997 12.7
1998 14.7
1999 17.4
2000 14.1
2001 16.4
2002 13.8
2003 18.9
2004 22
2005 23.3
2006 22.7
2007 18.4
2008 19.7
2009 24.1
2010 44.5
2011 28.4
2012 11.6
2013 31.6
2014 43.7
2015 51
2016 34.8
2017 16.3
2018 26.6
2019 27.3
2020 24
2021 33.7
2022 22.3
2023 40.1
2024 309.35
2025 382.3683
2026 342.3393
2027 464.2848
2028 306.6719
2029 603.8065
2030 433.1536
2031 521.128
2032 573.8915
2033 593.57
2034 679.5945
2035 1050.14
2036 579.676
2037 691.162
2038 774.933
2039 758.822
2040 815.6995
2041 766.793
2042 1045.718
2043 1037.168
2044 1130.58
2045 1154.955
2046 1229.804
2047 1771.119
# Estimates of abundance
#=======================
# Number of estimates of abundance
25
# Abundance
2004 2006 3 4 12 0 1 6187 0.07
2024 2024 3 4 12 0 1 7647.365 0.1805506
2025 2025 3 4 12 0 1 6846.786 0.245742
2026 2026 3 4 12 0 1 9285.696 0.2386042
2027 2027 3 4 12 0 1 6133.438 0.2036447
2028 2028 3 4 12 0 1 12076.13 0.2280684
2029 2029 3 4 12 0 1 8663.071 0.2171004
2030 2030 3 4 12 0 1 10422.56 0.1852429
2031 2031 3 4 12 0 1 11477.83 0.1729975
2032 2032 3 4 12 0 1 11871.4 0.148945
2033 2033 3 4 12 0 1 13591.89 0.246693
2034 2034 3 4 12 0 1 21002.79 0.223406
2035 2035 3 4 12 0 1 11593.52 0.2472716
2036 2036 3 4 12 0 1 13823.24 0.2420733
2037 2037 3 4 12 0 1 15498.66 0.2719395
2038 2038 3 4 12 0 1 15176.44 0.1775627
2039 2039 3 4 12 0 1 16313.99 0.225186
2040 2040 3 4 12 0 1 15335.86 0.1886445
2041 2041 3 4 12 0 1 20914.35 0.1132955
2042 2042 3 4 12 0 1 20743.36 0.1837404
2043 2043 3 4 12 0 1 22611.59 0.1747751
2044 2044 3 4 12 0 1 23099.09 0.1638951
2045 2045 3 4 12 0 1 24596.08 0.3251988
2046 2046 3 4 12 0 1 35422.38 0.2706557
2047 2047 3 4 12 0 1 26799.54 0.2024817
