# Years
1970 2094
# Feeding area
5
# Need
1000
# Catches
1970 0.1
1971 0.1
1972 0.1
1973 0.1
1974 0.1
1975 0.1
1976 0.2
1977 0.2
1978 0.2
1979 0.2
1980 0.2
1981 0.3
1982 0.3
1983 0.3
1984 0.4
1985 0.4
1986 0.4
1987 0.5
1988 0.5
1989 0.6
1990 0.7
1991 0.7
1992 0.8
1993 0.9
1994 1
1995 1.1
1996 1.2
1997 0.9
1998 1.2
1999 1.7
2000 1.5
2001 1.7
2002 1.9
2003 2.3
2004 2.5
2005 5.8
2006 5.3
2007 0
2008 12.4
2009 0
2010 7
2011 11
2012 0
2013 0
2014 7
2015 9.1
2016 7.1
2017 11.1
2018 30.1
2019 9.1
2020 23
2021 13
2022 8
2023 19.2
2024 116.15
2025 119.3965
2026 83.18305
2027 138.1215
2028 108.2673
2029 100.7014
2030 137.9196
2031 123.1692
2032 128.1718
2033 96.4818
2034 137.5391
2035 141.4778
2036 176.3286
2037 181.1049
2038 179.1041
2039 130.5
2040 94.77545
2041 173.1215
2042 97.9457
2043 182.5581
2044 153.3821
2045 165.0881
2046 181.6472
2047 104.5583
2048 125.3084
2049 165.9199
2050 133.0626
2051 179.5301
2052 181.1049
2053 146.647
2054 165.39
2055 119.4299
2056 144.9045
2057 172.8921
2058 101.0574
2059 194.9194
2060 137.2451
2061 90.74215
2062 211.8119
2063 209.9281
2064 206.273
2065 110.1306
2066 106.5924
2067 208.0007
2068 152.2955
2069 199.5145
2070 159.353
2071 174.9953
2072 145.0353
2073 163.17
2074 126.9198
2075 157.7869
2076 115.1728
2077 186.4461
2078 112.9899
2079 155.8608
2080 77.05205
2081 152.163
2082 204.635
2083 224.7026
2084 130.9101
2085 109.4351
2086 101.4011
2087 190.0357
2088 179.1627
2089 244.4509
2090 151.6253
2091 208.7313
2092 190.5665
2093 72.87245
2094 171.3151
# Estimates of abundance
#=======================
# Number of estimates of abundance
98
# Abundance
1997 1997 3 5 14 1 1 131 0.1840458
1998 1998 3 5 14 1 1 181 0.1659669
1999 1999 3 5 14 1 1 243 0.1718107
2000 2000 3 5 14 1 1 255 0.1686275
2001 2001 3 5 14 1 1 305 0.1665902
2002 2002 3 5 14 1 1 362 0.1796685
2003 2003 3 5 14 1 1 439 0.2238041
2004 2004 3 5 14 1 1 608 0.1878783
2005 2005 3 5 14 1 1 810 0.1384691
2006 2006 3 5 14 1 1 671 0.1125037
2007 2007 3 5 14 1 1 1040 0.1012692
2008 2008 3 5 14 1 1 1239 0.1019774
2009 2009 3 5 14 1 1 1245 0.1035181
2010 2010 3 5 14 1 1 1186 0.09768128
2011 2011 3 5 14 1 1 1279 0.1146521
2012 2012 3 5 14 1 1 1560 0.1117179
2013 2013 3 5 14 1 1 1887 0.1248437
2014 2014 3 5 14 1 1 1556 0.1254756
2015 2015 3 5 14 1 1 1586 0.1230328
2016 2016 3 5 14 1 1 1416 0.110226
2017 2017 3 5 14 1 1 1369 0.08027758
2018 2018 3 5 14 1 1 1671 0.0592699
2019 2019 3 5 14 1 1 1797 0.04588759
2020 2020 3 5 14 1 1 1924 0.04377859
2021 2021 3 5 14 1 1 2162 0.04334875
2022 2022 3 5 14 1 1 2328 0.04118986
2023 2023 3 5 14 1 1 2323 0.04187688
2024 2024 3 5 14 0 1 2387.929 0.2645891
2025 2025 3 5 14 0 1 1663.661 0.3631488
2026 2026 3 5 14 0 1 2762.43 0.3617265
2027 2027 3 5 14 0 1 2165.345 0.2620822
2028 2028 3 5 14 0 1 2014.027 0.2823136
2029 2029 3 5 14 0 1 2758.392 0.3368094
2030 2030 3 5 14 0 1 2463.384 0.358881
2031 2031 3 5 14 0 1 2563.436 0.2212535
2032 2032 3 5 14 0 1 1929.636 0.2611575
2033 2033 3 5 14 0 1 2750.782 0.2737952
2034 2034 3 5 14 0 1 2829.556 0.3182613
2035 2035 3 5 14 0 1 3526.572 0.2867991
2036 2036 3 5 14 0 1 3622.097 0.3294474
2037 2037 3 5 14 0 1 3582.082 0.267918
2038 2038 3 5 14 0 1 2610 0.1987629
2039 2039 3 5 14 0 1 1895.509 0.2456753
2040 2040 3 5 14 0 1 3462.43 0.2088842
2041 2041 3 5 14 0 1 1958.914 0.2309095
2042 2042 3 5 14 0 1 3651.162 0.2001129
2043 2043 3 5 14 0 1 3067.641 0.1722534
2044 2044 3 5 14 0 1 3301.761 0.1384388
2045 2045 3 5 14 0 1 3632.943 0.3596684
2046 2046 3 5 14 0 1 2091.165 0.3359021
2047 2047 3 5 14 0 1 2506.168 0.2577141
2048 2048 3 5 14 0 1 3318.397 0.2818807
2049 2049 3 5 14 0 1 2661.251 0.2910258
2050 2050 3 5 14 0 1 3590.601 0.4375082
2051 2051 3 5 14 0 1 3622.097 0.2986762
2052 2052 3 5 14 0 1 2932.939 0.3284484
2053 2053 3 5 14 0 1 3307.8 0.2533342
2054 2054 3 5 14 0 1 2388.598 0.2695221
2055 2055 3 5 14 0 1 2898.09 0.1842911
2056 2056 3 5 14 0 1 3457.842 0.2315982
2057 2057 3 5 14 0 1 2021.148 0.3071359
2058 2058 3 5 14 0 1 3898.387 0.134438
2059 2059 3 5 14 0 1 2744.901 0.3540901
2060 2060 3 5 14 0 1 1814.843 0.4121296
2061 2061 3 5 14 0 1 4236.237 0.2033541
2062 2062 3 5 14 0 1 4198.561 0.3554082
2063 2063 3 5 14 0 1 4125.46 0.374435
2064 2064 3 5 14 0 1 2202.611 0.3311724
2065 2065 3 5 14 0 1 2131.847 0.3787024
2066 2066 3 5 14 0 1 4160.013 0.3587682
2067 2067 3 5 14 0 1 3045.909 0.3018054
2068 2068 3 5 14 0 1 3990.29 0.2932973
2069 2069 3 5 14 0 1 3187.059 0.3987723
2070 2070 3 5 14 0 1 3499.906 0.359561
2071 2071 3 5 14 0 1 2900.706 0.2391771
2072 2072 3 5 14 0 1 3263.4 0.3494156
2073 2073 3 5 14 0 1 2538.395 0.3524076
2074 2074 3 5 14 0 1 3155.738 0.2254546
2075 2075 3 5 14 0 1 2303.455 0.229918
2076 2076 3 5 14 0 1 3728.922 0.3853042
2077 2077 3 5 14 0 1 2259.797 0.3197885
2078 2078 3 5 14 0 1 3117.216 0.202039
2079 2079 3 5 14 0 1 1541.041 0.2744965
2080 2080 3 5 14 0 1 3043.26 0.3171044
2081 2081 3 5 14 0 1 4092.699 0.2987379
2082 2082 3 5 14 0 1 4494.051 0.2820121
2083 2083 3 5 14 0 1 2618.202 0.1684987
2084 2084 3 5 14 0 1 2188.701 0.4030157
2085 2085 3 5 14 0 1 2028.021 0.2844107
2086 2086 3 5 14 0 1 3800.713 0.1722389
2087 2087 3 5 14 0 1 3583.253 0.2951625
2088 2088 3 5 14 0 1 4889.018 0.2467028
2089 2089 3 5 14 0 1 3032.505 0.2555671
2090 2090 3 5 14 0 1 4174.625 0.3668525
2091 2091 3 5 14 0 1 3811.33 0.2950926
2092 2092 3 5 14 0 1 1457.449 0.2540925
2093 2093 3 5 14 0 1 3426.301 0.3060802
2094 2094 3 5 14 0 1 2660.986 0.2047472
