# Years
1970 2025
# Feeding area
5
# Need
1000
# Catches
1970 0.1
1971 0.1
1972 0.1
1973 0.1
1974 0.1
1975 0.1
1976 0.2
1977 0.2
1978 0.2
1979 0.2
1980 0.2
1981 0.3
1982 0.3
1983 0.3
1984 0.4
1985 0.4
1986 0.4
1987 0.5
1988 0.5
1989 0.6
1990 0.7
1991 0.7
1992 0.8
1993 0.9
1994 1
1995 1.1
1996 1.2
1997 0.9
1998 1.2
1999 1.7
2000 1.5
2001 1.7
2002 1.9
2003 2.3
2004 2.5
2005 5.8
2006 5.3
2007 0
2008 12.4
2009 0
2010 7
2011 11
2012 0
2013 0
2014 7
2015 9.1
2016 7.1
2017 11.1
2018 30.1
2019 9.1
2020 23
2021 13
2022 8
2023 19.2
2024 116.15
2025 119.3965
# Estimates of abundance
#=======================
# Number of estimates of abundance
29
# Abundance
1997 1997 3 5 14 1 1 131 0.1840458
1998 1998 3 5 14 1 1 181 0.1659669
1999 1999 3 5 14 1 1 243 0.1718107
2000 2000 3 5 14 1 1 255 0.1686275
2001 2001 3 5 14 1 1 305 0.1665902
2002 2002 3 5 14 1 1 362 0.1796685
2003 2003 3 5 14 1 1 439 0.2238041
2004 2004 3 5 14 1 1 608 0.1878783
2005 2005 3 5 14 1 1 810 0.1384691
2006 2006 3 5 14 1 1 671 0.1125037
2007 2007 3 5 14 1 1 1040 0.1012692
2008 2008 3 5 14 1 1 1239 0.1019774
2009 2009 3 5 14 1 1 1245 0.1035181
2010 2010 3 5 14 1 1 1186 0.09768128
2011 2011 3 5 14 1 1 1279 0.1146521
2012 2012 3 5 14 1 1 1560 0.1117179
2013 2013 3 5 14 1 1 1887 0.1248437
2014 2014 3 5 14 1 1 1556 0.1254756
2015 2015 3 5 14 1 1 1586 0.1230328
2016 2016 3 5 14 1 1 1416 0.110226
2017 2017 3 5 14 1 1 1369 0.08027758
2018 2018 3 5 14 1 1 1671 0.0592699
2019 2019 3 5 14 1 1 1797 0.04588759
2020 2020 3 5 14 1 1 1924 0.04377859
2021 2021 3 5 14 1 1 2162 0.04334875
2022 2022 3 5 14 1 1 2328 0.04118986
2023 2023 3 5 14 1 1 2323 0.04187688
2024 2024 3 5 14 0 1 2387.929 0.2645891
2025 2025 3 5 14 0 1 1663.661 0.3631488
